25
563 458
1 342 191 0 1 65322
2 169 240 0 1 40560
3 173 179 0 3 30967
4 176 254 0 2 44704
5 274 123 0 2 33702
6 234 110 0 2 25740
7 360 231 0 1 83160
8 172 207 0 3 35604
9 146 228 0 3 33288
10 156 272 0 2 42432
11 248 280 0 1 69440
12 183 139 0 4 25437
13 354 180 0 2 63720
14 257 197 0 3 50629
15 188 213 0 1 40044
16 123 281 0 3 34563
17 332 207 0 2 68724
18 346 202 0 1 69892
19 262 217 0 3 56854
20 317 130 0 1 41210
21 225 138 0 2 31050
22 128 156 0 7 19968
23 267 162 0 3 43254
24 224 117 0 1 26208
25 164 171 0 2 28044
